38534.7
20 18 4 72 29 17 46 40 74 90 30 76 23 94 51 98 3 6 34 11 87 88 32 66 19 63 44 38 41 24 22 86 37 49 85 16 54 69 36 13 31 12 83 68 50 73 39 95 27 48 56 55 97 81 14 45 21 64 75 70 82 28 9 61 25 26 71 35 65 10 43 79 1 33 52 84 53 42 67 99 8 62 5 47 57 91 92 93 89 60 77 80 96 0 78 58 15 7 2 59 
